Maximize
 obj: 0 X1
Subject To
 c1:
  + 1340 X1 + 120 X2 + 8340 X3 + 6980 X4 + 1100 X5 + 6180 X6 + 4220 X7 + 870 X8
  + 2070 X9 + 3270 X10
  <= 17240
 obj1:
  + 651 X1 + 525 X2 + 190 X3 + 585 X4 + 697 X5 + 140 X6 + 853 X7 + 571 X8
  + 908 X9 + 740 X10
  >= 1
 obj2:
  + 221 X1 + 415 X2 + 565 X3 + 99 X4 + 785 X5 + 724 X6 + 978 X7 + 589 X8
  + 906 X9 + 388 X10
  >= 2
 obj3:
  + 727 X1 + 779 X2 + 156 X3 + 115 X4 + 299 X5 + 763 X6 + 692 X7 + 558 X8
  + 306 X9 + 1000 X10
  >= 3
 obj4:
  + 184 X1 + 956 X2 + 524 X3 + 373 X4 + 541 X5 + 220 X6 + 512 X7 + 394 X8
  + 791 X9 + 420 X10
  >= 4
Binary
 X1
 X2
 X3
 X4
 X5
 X6
 X7
 X8
 X9
 X10
End
